#MD-DMS by Ha-Bin Yu
variable T equal 320
log log.${T}
units           metal
boundary        p p p
atom_style      atomic
read_data       ../data/T${T}.dat   
mass            1  58.69
mass		2  30.97
pair_style      eam/alloy
pair_coeff      * *  NiP.lammps.eam Ni P

neigh_modify    delay 5

timestep 0.01
thermo 1000
reset_timestep 0
thermo_style custom step temp pe etotal press vol lx ly lz
fix             1 all nvt temp ${T} ${T} 0.5
thermo_modify flush yes

fix dsf all deform 1 x  wiggle 0.5  30000.0 y volume z volume units box
fix ps1 all ave/time 1 1 30000 c_thermo_press[1] c_thermo_press[2]  c_thermo_press[3] c_thermo_press[4]  c_thermo_press[5] c_thermo_press[6]  file  stress.${T}
dump            1 all custom 3000000 dump.${T} id type x y z
dump_modify 1 sort id
run 30000000
write_restart rst.${T}
clear
jump dms300.lmp
