#MD-DMS by Hai-Bin Yu
variable T equal 890
variable f equal 1000000
variable NCyle equal 5 #10
variable iStep equal (${f})
variable dumpStep equal (${f}*100)
variable runStep equal (${f}*100*${NCyle})
variable aveStep equal ceil(${iStep}/100)

log  log.${T}
units           metal
boundary        p p p
atom_style      atomic
read_data    ../../data/data.T${T}
mass            1   58.693  #Ni
mass            2   92.906  #Nb
pair_style      eam/fs
pair_coeff      * * v1_18_NiNb_B2.eam.fs  Ni Nb
change_box all triclinic
timestep 0.01
thermo ${iStep}
reset_timestep 0
thermo_style custom step temp pe etotal press vol lx ly lz
fix             1 all nvt/sllod temp ${T} ${T}  0.1
thermo_modify flush yes
fix nodrift all momentum 1  linear 1 1 1
fix com_seed all recenter INIT INIT INIT shift all
fix dsf all deform 1 xy  wiggle 1.0  ${f}   units box  remap v
fix ps1 all ave/time 1 ${aveStep}  ${iStep} c_thermo_press[1] c_thermo_press[2]  c_thermo_press[3] c_thermo_press[4]  c_thermo_press[5] c_thermo_press[6]  file  stress.${T}
dump            1 all custom ${dumpStep} dump.${T} id type x y z
dump_modify 1 sort id
run ${runStep}
write_restart T${T}.rst
clear 
#jump dms910.lmp
